SPS/GLPK/SPS.dat
# Data section
data;

set ParkingSpaces := p1 p2 p3 p4 p5;
set WaitingCars := Car1 Car2;

param :
        initLoad :=
    p1     40
    p2     37
    p3     40
    p4     37
    p5     42;

param :
        maxCarCapacity :=
    p1     25
    p2     25
    p3     25
    p4     25
    p5     25;

param :
        parked_car_num :=
    p1     12
    p2     11
    p3     12
    p4     11
    p5     12;

param :
        numPeopleInCar :=
    Car1     5
    Car2     4;